# Solution for model GasLib-40
# Objective value = 4.7256297618286979e+01
loadshed[innode_1] 0
loadshed[innode_2] 0
loadshed[innode_3] 0
loadshed[innode_4] 0
loadshed[innode_5] 0
loadshed[innode_6] 0
loadshed[innode_7] 0
loadshed[innode_8] 0
loadshed[source_1] -6.0657720424049932e-02
loadshed[source_2] 9.5767327060971241e-02
loadshed[source_3] 2.6381008837876641e-01
loadshed[sink_1] 3.4416918274749575e-02
loadshed[sink_2] 0
loadshed[sink_3] 0
loadshed[sink_4] 0
loadshed[sink_5] 0
loadshed[sink_6] 0
loadshed[sink_7] 0
loadshed[sink_8] 0
loadshed[sink_9] 0
loadshed[sink_10] 0
loadshed[sink_11] 0
loadshed[sink_12] 1
loadshed[sink_13] 0
loadshed[sink_14] 0
loadshed[sink_15] 0
loadshed[sink_16] 0
loadshed[sink_17] 0
loadshed[sink_18] 0
loadshed[sink_19] 0
loadshed[sink_20] 0
loadshed[sink_21] 1
loadshed[sink_22] 0
loadshed[sink_23] 0
loadshed[sink_24] 8.5514013354407170e-01
loadshed[sink_25] 0
loadshed[sink_26] 0
loadshed[sink_27] 0
loadshed[sink_28] 0
loadshed[sink_29] 0
flow[source_1,sink_3] 1.6767967364898260e+02
flow[innode_1,sink_16] 1.6354166666666970e+01
flow[innode_6,sink_13] -1.9053009587317575e+00
flow[sink_13,sink_14] -1.8259467625398425e+01
flow[sink_14,sink_10] -3.4613634292065093e+01
flow[sink_25,sink_26] 1.9805620238171764e+02
flow[sink_26,sink_9] 3.2708333333334551e+01
flow[sink_9,sink_18] 1.6354166666667879e+01
flow[sink_26,sink_4] 1.4899370238171633e+02
flow[sink_4,sink_20] 1.6354166666668277e+01
flow[sink_18,sink_6] 0
flow[sink_25,innode_8] -1.3497134031564624e+02
flow[sink_6,sink_7] -4.8499639982381709e+01
flow[sink_6,sink_22] 3.2145473315715037e+01
flow[sink_7,sink_24] 2.3690623993313271e+00
flow[sink_22,sink_1] 1.5791306649048368e+01
flow[sink_24,sink_21] 0
flow[sink_21,sink_12] 0
flow[sink_7,sink_5] -6.7222869048379692e+01
flow[sink_5,sink_17] -8.3577035715046364e+01
flow[sink_17,sink_4] -1.1628536904838137e+02
flow[sink_17,sink_8] 1.6354166666668334e+01
flow[sink_3,sink_23] 16.3541666666697
flow[sink_8,sink_20] 0
flow[sink_25,sink_20] 0
flow[sink_25,sink_15] -77.5337277740063
flow[sink_15,sink_29] -5.3531334638934510e+01
flow[sink_29,sink_28] 1.6354166666667879e+01
flow[sink_29,sink_2] 5.6710726468405042e+01
flow[sink_2,sink_15] 4.0356559801738371e+01
flow[sink_29,innode_7] -1.4295039444067353e+02
flow[innode_4,sink_19] 4.4998836094877149e+01
flow[sink_19,innode_3] 4.0833600337756877e+01
flow[innode_4,innode_5] 7.1385631530521337e+01
flow[sink_27,innode_5] -7.1385631530521337e+01
flow[sink_27,sink_19] 5.5031464863854673e+01
flow[sink_10,sink_11] 3.2708333333333641e+01
flow[sink_10,innode_2] -4.2842533954308522e+01
flow[sink_10,innode_3] -4.0833600337756877e+01
flow[innode_6,sink_25] 1.9053009587317575e+00
flow[sink_11,innode_1] 1.6354166666666970e+01
flow[sink_19,innode_2] 4.2842533954308522e+01
flow[source_3,innode_4] 1.1638446762539849e+02
flow[source_2,innode_7] 1.4295039444067353e+02
flow[sink_3,innode_8] 1.3497134031564624e+02
pressure[innode_1] 7.6774126319559528e+01
pressure[innode_2] 7.9190232492108663e+01
pressure[innode_3] 7.9099811108064330e+01
pressure[innode_4] 81.01325
pressure[innode_5] 80.9641471984573
pressure[innode_6] 7.5245470849286022e+01
pressure[innode_7] 81.01325
pressure[innode_8] 8.0452760906948555e+01
pressure[source_1] 81.01325
pressure[source_2] 81.01325
pressure[source_3] 81.01325
pressure[sink_1] 1.01325
pressure[sink_2] 7.5753340252857370e+01
pressure[sink_3] 8.0452760906948555e+01
pressure[sink_4] 4.2353043893771535e+01
pressure[sink_5] 3.1683115479288841e+01
pressure[sink_6] 3.0598654743667248e+00
pressure[sink_7] 3.7256499256801732e+00
pressure[sink_8] 3.7291915332480585e+01
pressure[sink_9] 5.9338810659614531e+01
pressure[sink_10] 7.6925827627163073e+01
pressure[sink_11] 7.6774126319559528e+01
pressure[sink_12] 1.01325
pressure[sink_13] 7.5255974455066138e+01
pressure[sink_14] 7.5288651327744518e+01
pressure[sink_15] 7.5621584979547208e+01
pressure[sink_16] 7.5752476484741848e+01
pressure[sink_17] 3.7909000527894207e+01
pressure[sink_18] 5.8747068165814824e+01
pressure[sink_19] 7.9190232492108663e+01
pressure[sink_20] 4.1153226184379960e+01
pressure[sink_21] 1.01325
pressure[sink_22] 2.0404074867193582e+00
pressure[sink_23] 8.0288042895288768e+01
pressure[sink_24] 1.01325
pressure[sink_25] 7.5245470849286022e+01
pressure[sink_26] 6.1296488827499140e+01
pressure[sink_27] 8.0371778363217928e+01
pressure[sink_28] 7.6894604682621633e+01
pressure[sink_29] 7.7189886956238809e+01
interdiction[source_1,sink_3] 0
interdiction[innode_1,sink_16] 0
interdiction[innode_6,sink_13] 0
interdiction[sink_13,sink_14] 0
interdiction[sink_14,sink_10] 0
interdiction[sink_25,sink_26] 0
interdiction[sink_26,sink_9] 0
interdiction[sink_9,sink_18] 0
interdiction[sink_26,sink_4] 0
interdiction[sink_4,sink_20] 0
interdiction[sink_18,sink_6] 1
interdiction[sink_25,innode_8] 0
interdiction[sink_6,sink_7] 0
interdiction[sink_6,sink_22] 0
interdiction[sink_7,sink_24] 0
interdiction[sink_22,sink_1] 0
interdiction[sink_24,sink_21] 0
interdiction[sink_21,sink_12] 0
interdiction[sink_7,sink_5] 0
interdiction[sink_5,sink_17] 0
interdiction[sink_17,sink_4] 0
interdiction[sink_17,sink_8] 0
interdiction[sink_3,sink_23] 0
interdiction[sink_8,sink_20] 1
interdiction[sink_25,sink_20] 1
interdiction[sink_25,sink_15] 0
interdiction[sink_15,sink_29] 0
interdiction[sink_29,sink_28] 0
interdiction[sink_29,sink_2] 0
interdiction[sink_2,sink_15] 0
interdiction[sink_29,innode_7] 0
interdiction[innode_4,sink_19] 0
interdiction[sink_19,innode_3] 0
interdiction[innode_4,innode_5] 0
interdiction[sink_27,innode_5] 0
interdiction[sink_27,sink_19] 0
interdiction[sink_10,sink_11] 0
interdiction[sink_10,innode_2] 0
interdiction[sink_10,innode_3] 0
interdiction[innode_6,sink_25] 0
interdiction[sink_11,innode_1] 0
interdiction[sink_19,innode_2] 0
interdiction[source_3,innode_4] 0
interdiction[source_2,innode_7] 0
interdiction[sink_3,innode_8] 0
WCcheckFlow[source_1,sink_3] 39
WCcheckFlow[innode_1,sink_16] 1
WCcheckFlow[innode_6,sink_13] 13
WCcheckFlow[sink_13,sink_14] 12
WCcheckFlow[sink_14,sink_10] 11
WCcheckFlow[sink_25,sink_26] 15
WCcheckFlow[sink_26,sink_9] 2
WCcheckFlow[sink_9,sink_18] 1
WCcheckFlow[sink_26,sink_4] 12
WCcheckFlow[sink_4,sink_20] 1
WCcheckFlow[sink_18,sink_6] 0
WCcheckFlow[sink_25,innode_8] -36
WCcheckFlow[sink_6,sink_7] -3
WCcheckFlow[sink_6,sink_22] 2
WCcheckFlow[sink_7,sink_24] 3
WCcheckFlow[sink_22,sink_1] 1
WCcheckFlow[sink_24,sink_21] 2
WCcheckFlow[sink_21,sink_12] 1
WCcheckFlow[sink_7,sink_5] -7
WCcheckFlow[sink_5,sink_17] -8
WCcheckFlow[sink_17,sink_4] -10
WCcheckFlow[sink_17,sink_8] 1
WCcheckFlow[sink_3,sink_23] 1
WCcheckFlow[sink_8,sink_20] 0
WCcheckFlow[sink_25,sink_20] 0
WCcheckFlow[sink_25,sink_15] 6
WCcheckFlow[sink_15,sink_29] 5
WCcheckFlow[sink_29,sink_28] 1
WCcheckFlow[sink_29,sink_2] 1
WCcheckFlow[sink_2,sink_15] 0
WCcheckFlow[sink_29,innode_7] 2
WCcheckFlow[innode_4,sink_19] -4
WCcheckFlow[sink_19,innode_3] -5
WCcheckFlow[innode_4,innode_5] 2
WCcheckFlow[sink_27,innode_5] -1
WCcheckFlow[sink_27,sink_19] 0
WCcheckFlow[sink_10,sink_11] 3
WCcheckFlow[sink_10,innode_2] 1
WCcheckFlow[sink_10,innode_3] 6
WCcheckFlow[innode_6,sink_25] -14
WCcheckFlow[sink_11,innode_1] 2
WCcheckFlow[sink_19,innode_2] 0
WCcheckFlow[source_3,innode_4] -1
WCcheckFlow[source_2,innode_7] -1
WCcheckFlow[sink_3,innode_8] 37
